data/solutions/recovery/degenerate/intermediate/binding/degenerate_intermediate_instance31/53.sol
Elapsed time: 0.04
Upper bound: 16377867.0
Planning weighted value: 1.85357699389e+11
C[0]=16377867.0
C[1]=16124571.0
C[2]=15763721.0
C[3]=15399685.0
C[4]=15338176.0
C[5]=14962679.0
C[6]=11319494.0
C[7]=11306280.0
C[8]=11300330.0
C[9]=11297783.0
C[10]=11295972.0
C[11]=11288814.0
C[12]=11267671.0
C[13]=11248157.0
y[0]=13
y[1]=9
y[2]=6
y[3]=0
y[4]=2
y[5]=4
y[6]=7
y[7]=5
y[8]=0
y[9]=7
y[10]=6
y[11]=10
y[12]=2
y[13]=8
y[14]=5
y[15]=3
y[16]=8
y[17]=1
y[18]=1
y[19]=6
y[20]=4
y[21]=4
y[22]=0
y[23]=8
y[24]=10
y[25]=8
y[26]=13
y[27]=5
y[28]=2
y[29]=11
y[30]=0
y[31]=1
y[32]=10
y[33]=2
y[34]=8
y[35]=5
y[36]=11
y[37]=6
y[38]=5
y[39]=4
y[40]=7
y[41]=10
y[42]=8
y[43]=13
y[44]=4
y[45]=12
y[46]=9
y[47]=3
y[48]=1
y[49]=13
y[50]=3
y[51]=13
y[52]=6
y[53]=4
y[54]=9
y[55]=1
y[56]=7
y[57]=1
y[58]=11
y[59]=3
y[60]=11
y[61]=12
y[62]=2
y[63]=11
y[64]=12
y[65]=7
y[66]=8
y[67]=9
y[68]=3
y[69]=11
y[70]=3
y[71]=12
y[72]=13
y[73]=12
y[74]=2
y[75]=0
y[76]=5
y[77]=2
y[78]=3
y[79]=4
