data/solutions/recovery/degenerate/intermediate/binding/degenerate_intermediate_instance31/53.log

Log started (V12.6.3.0) Sun Apr 22 12:34:12 2018

New value for default parallel thread count: 1

Problem '/tmp/tmpRDvHSU.pyomo.lp' read.
Read time = 0.02 sec. (1.11 ticks)

Problem name         : /tmp/tmpRDvHSU.pyomo.lp
Objective sense      : Minimize
Variables            :    1136  [Nneg: 1,  Binary: 1120,  General Integer: 15]
Objective nonzeros   :       1
Linear constraints   :     189  [Less: 94,  Equal: 95]
  Nonzeros           :   80213
  RHS nonzeros       :      81

Variables            : Min LB: 0.000000         Max UB: 1.000000       
Objective nonzeros   : Min   : 1.000000         Max   : 1.000000       
Linear constraints   :
  Nonzeros           : Min   : 1.000000         Max   : 8036379.       
  RHS nonzeros       : Min   : 1.000000         Max   : 1.000000       
Tried aggregator 2 times.
MIP Presolve eliminated 156 rows and 1051 columns.
Aggregator did 14 substitutions.
Reduced MIP has 19 rows, 71 columns, and 154 nonzeros.
Reduced MIP has 70 binaries, 1 generals, 0 SOSs, and 0 indicators.
Presolve time = 0.00 sec. (4.83 ticks)
Found incumbent of value 4.1076670e+07 after 0.01 sec. (6.76 ticks)
Probing time = 0.00 sec. (0.09 ticks)
Tried aggregator 1 time.
Reduced MIP has 19 rows, 71 columns, and 154 nonzeros.
Reduced MIP has 70 binaries, 1 generals, 0 SOSs, and 0 indicators.
Presolve time = 0.00 sec. (0.11 ticks)
Probing time = 0.00 sec. (0.09 ticks)
Clique table members: 5.
MIP emphasis: balance optimality and feasibility.
MIP search method: dynamic search.
Parallel mode: none, using 1 thread.
Root relaxation solution time = 0.00 sec. (0.06 ticks)

        Nodes                                         Cuts/
   Node  Left     Objective  IInf  Best Integer    Best Bound    ItCnt     Gap

*     0+    0                       4.10767e+07   1.61246e+07            60.75%
      0     0   1.61246e+07     8   4.10767e+07   1.61246e+07       10   60.75%
*     0+    0                       1.85952e+07   1.61246e+07            13.29%
      0     0   1.61246e+07     6   1.85952e+07      Fract: 4       15   13.29%
*     0+    0                       1.75286e+07   1.61246e+07             8.01%
      0     0   1.61246e+07     6   1.75286e+07       Cuts: 6       25    8.01%
*     0+    0                       1.73181e+07   1.61246e+07             6.89%
*     0+    0                       1.71146e+07   1.61246e+07             5.78%
*     0+    0                       1.67176e+07   1.61246e+07             3.55%

Repeating presolve.
Tried aggregator 1 time.
MIP Presolve eliminated 3 rows and 45 columns.
MIP Presolve modified 22 coefficients.
Reduced MIP has 16 rows, 26 columns, and 62 nonzeros.
Reduced MIP has 25 binaries, 1 generals, 0 SOSs, and 0 indicators.
Presolve time = 0.00 sec. (0.10 ticks)
Probing time = 0.00 sec. (0.03 ticks)
Tried aggregator 1 time.
MIP Presolve modified 14 coefficients.
Reduced MIP has 16 rows, 26 columns, and 62 nonzeros.
Reduced MIP has 25 binaries, 1 generals, 0 SOSs, and 0 indicators.
Presolve time = 0.00 sec. (0.06 ticks)
Represolve time = 0.00 sec. (0.33 ticks)
Probing time = 0.00 sec. (0.03 ticks)
Clique table members: 11.
MIP emphasis: balance optimality and feasibility.
MIP search method: dynamic search.
Parallel mode: none, using 1 thread.
Root relaxation solution time = 0.00 sec. (0.05 ticks)

        Nodes                                         Cuts/
   Node  Left     Objective  IInf  Best Integer    Best Bound    ItCnt     Gap

*     0+    0                       1.67176e+07   1.61246e+07             3.55%
      0     0   1.61246e+07     2   1.67176e+07   1.61246e+07       29    3.55%
*     0+    0                       1.65140e+07   1.61246e+07             2.36%
      0     0   1.63779e+07     2   1.65140e+07      Fract: 1       32    0.82%
*     0+    0                       1.63779e+07   1.63779e+07             0.00%
      0     0        cutoff         1.63779e+07   1.63779e+07       32    0.00%
Elapsed time = 0.01 sec. (8.71 ticks, tree = 0.01 MB, solutions = 8)

Gomory fractional cuts applied:  1

Root node processing (before b&c):
  Real time             =    0.01 sec. (8.80 ticks)
Sequential b&c:
  Real time             =    0.00 sec. (0.00 ticks)
                          ------------
Total (root+branch&cut) =    0.01 sec. (8.80 ticks)

Solution pool: 8 solutions saved.

MIP - Integer optimal solution:  Objective =  1.6377867000e+07
Solution time =    0.01 sec.  Iterations = 32  Nodes = 0
Deterministic time = 8.80 ticks  (879.59 ticks/sec)


Incumbent solution written to file '/tmp/tmppTs6IR.cplex.sol'.
